p edge 250 3214
e 0 9
e 0 11
e 0 19
e 0 23
e 0 38
e 0 61
e 0 64
e 0 75
e 0 86
e 0 108
e 0 118
e 0 120
e 0 135
e 0 137
e 0 140
e 0 141
e 0 151
e 0 155
e 0 156
e 0 167
e 0 168
e 0 170
e 0 171
e 0 173
e 0 174
e 0 190
e 0 214
e 1 2
e 1 8
e 1 26
e 1 46
e 1 48
e 1 55
e 1 57
e 1 63
e 1 64
e 1 66
e 1 69
e 1 72
e 1 79
e 1 82
e 1 94
e 1 106
e 1 107
e 1 109
e 1 117
e 1 128
e 1 130
e 1 154
e 1 171
e 1 179
e 1 183
e 1 185
e 1 195
e 1 222
e 1 238
e 2 8
e 2 24
e 2 46
e 2 58
e 2 82
e 2 101
e 2 117
e 2 123
e 2 127
e 2 140
e 2 148
e 2 149
e 2 152
e 2 156
e 2 157
e 2 161
e 2 170
e 2 176
e 2 187
e 2 198
e 2 204
e 2 206
e 2 232
e 2 237
e 2 240
e 2 249
e 3 9
e 3 10
e 3 12
e 3 15
e 3 23
e 3 37
e 3 38
e 3 50
e 3 60
e 3 70
e 3 74
e 3 83
e 3 85
e 3 86
e 3 102
e 3 108
e 3 111
e 3 115
e 3 119
e 3 121
e 3 138
e 3 139
e 3 153
e 3 161
e 3 163
e 3 174
e 3 180
e 3 184
e 3 185
e 3 198
e 3 208
e 3 237
e 3 243
e 4 8
e 4 13
e 4 15
e 4 33
e 4 35
e 4 36
e 4 48
e 4 50
e 4 51
e 4 53
e 4 82
e 4 93
e 4 94
e 4 100
e 4 102
e 4 106
e 4 111
e 4 128
e 4 140
e 4 147
e 4 156
e 4 177
e 4 178
e 4 187
e 4 194
e 4 202
e 4 205
e 4 214
e 4 226
e 4 232
e 4 234
e 4 235
e 4 242
e 5 19
e 5 24
e 5 57
e 5 59
e 5 62
e 5 69
e 5 70
e 5 71
e 5 72
e 5 74
e 5 78
e 5 87
e 5 105
e 5 109
e 5 111
e 5 118
e 5 127
e 5 137
e 5 138
e 5 141
e 5 156
e 5 157
e 5 164
e 5 172
e 5 179
e 5 188
e 5 202
e 5 210
e 5 221
e 5 227
e 5 235
e 5 240
e 5 246
e 6 28
e 6 29
e 6 37
e 6 41
e 6 46
e 6 49
e 6 75
e 6 86
e 6 87
e 6 96
e 6 98
e 6 104
e 6 115
e 6 123
e 6 126
e 6 148
e 6 150
e 6 157
e 6 171
e 6 172
e 6 192
e 6 218
e 6 226
e 6 235
e 6 247
e 7 8
e 7 12
e 7 18
e 7 22
e 7 37
e 7 48
e 7 73
e 7 82
e 7 93
e 7 98
e 7 110
e 7 116
e 7 146
e 7 153
e 7 166
e 7 173
e 7 176
e 7 180
e 7 187
e 7 188
e 7 196
e 7 205
e 7 211
e 7 214
e 7 222
e 7 226
e 7 228
e 7 232
e 7 245
e 7 248
e 8 12
e 8 14
e 8 18
e 8 46
e 8 68
e 8 78
e 8 93
e 8 95
e 8 120
e 8 131
e 8 135
e 8 136
e 8 146
e 8 148
e 8 152
e 8 153
e 8 168
e 8 180
e 8 205
e 8 207
e 8 224
e 8 226
e 8 232
e 8 240
e 9 11
e 9 25
e 9 56
e 9 58
e 9 62
e 9 64
e 9 70
e 9 100
e 9 126
e 9 128
e 9 146
e 9 153
e 9 173
e 9 194
e 9 214
e 9 233
e 9 248
e 10 27
e 10 29
e 10 41
e 10 47
e 10 50
e 10 60
e 10 62
e 10 68
e 10 89
e 10 121
e 10 136
e 10 140
e 10 150
e 10 157
e 10 166
e 10 186
e 10 188
e 10 191
e 10 200
e 10 203
e 10 217
e 10 229
e 11 15
e 11 22
e 11 26
e 11 27
e 11 31
e 11 35
e 11 59
e 11 79
e 11 114
e 11 135
e 11 147
e 11 162
e 11 168
e 11 171
e 11 173
e 11 174
e 11 178
e 11 209
e 11 210
e 11 214
e 11 217
e 11 245
e 12 13
e 12 17
e 12 22
e 12 25
e 12 27
e 12 32
e 12 46
e 12 63
e 12 79
e 12 82
e 12 86
e 12 90
e 12 94
e 12 111
e 12 134
e 12 143
e 12 148
e 12 176
e 12 182
e 12 197
e 12 199
e 12 202
e 12 203
e 12 206
e 12 208
e 12 212
e 12 218
e 12 221
e 12 233
e 12 235
e 12 246
e 13 15
e 13 20
e 13 33
e 13 37
e 13 53
e 13 62
e 13 64
e 13 66
e 13 85
e 13 90
e 13 93
e 13 98
e 13 101
e 13 104
e 13 111
e 13 112
e 13 114
e 13 118
e 13 119
e 13 126
e 13 157
e 13 174
e 13 176
e 13 203
e 13 227
e 13 228
e 13 233
e 13 235
e 14 20
e 14 21
e 14 23
e 14 24
e 14 48
e 14 66
e 14 82
e 14 95
e 14 100
e 14 119
e 14 128
e 14 129
e 14 134
e 14 139
e 14 162
e 14 167
e 14 182
e 14 195
e 14 202
e 14 203
e 14 210
e 14 216
e 14 219
e 14 223
e 14 247
e 15 38
e 15 46
e 15 47
e 15 58
e 15 66
e 15 70
e 15 71
e 15 72
e 15 83
e 15 87
e 15 94
e 15 114
e 15 117
e 15 123
e 15 153
e 15 155
e 15 181
e 15 208
e 15 219
e 15 228
e 15 231
e 15 235
e 15 244
e 16 24
e 16 27
e 16 43
e 16 53
e 16 61
e 16 72
e 16 77
e 16 96
e 16 102
e 16 142
e 16 145
e 16 169
e 16 173
e 16 182
e 16 190
e 16 192
e 16 197
e 16 204
e 16 238
e 17 25
e 17 33
e 17 35
e 17 53
e 17 62
e 17 66
e 17 69
e 17 74
e 17 87
e 17 95
e 17 96
e 17 102
e 17 112
e 17 114
e 17 126
e 17 130
e 17 154
e 17 161
e 17 174
e 17 191
e 17 212
e 17 226
e 17 229
e 18 27
e 18 39
e 18 63
e 18 69
e 18 93
e 18 102
e 18 116
e 18 123
e 18 125
e 18 138
e 18 140
e 18 153
e 18 168
e 18 171
e 18 222
e 18 228
e 18 229
e 18 243
e 18 246
e 19 26
e 19 38
e 19 61
e 19 90
e 19 96
e 19 114
e 19 126
e 19 166
e 19 171
e 19 173
e 19 185
e 19 190
e 19 197
e 19 203
e 19 204
e 19 208
e 19 211
e 19 228
e 19 229
e 19 236
e 20 24
e 20 30
e 20 40
e 20 50
e 20 55
e 20 62
e 20 72
e 20 74
e 20 77
e 20 82
e 20 84
e 20 86
e 20 97
e 20 103
e 20 107
e 20 117
e 20 126
e 20 128
e 20 133
e 20 163
e 20 172
e 20 175
e 20 189
e 20 196
e 20 197
e 20 200
e 20 201
e 20 239
e 21 22
e 21 28
e 21 29
e 21 41
e 21 43
e 21 45
e 21 54
e 21 55
e 21 65
e 21 67
e 21 72
e 21 78
e 21 97
e 21 98
e 21 103
e 21 111
e 21 117
e 21 141
e 21 143
e 21 147
e 21 154
e 21 159
e 21 174
e 21 177
e 21 236
e 21 245
e 22 26
e 22 27
e 22 48
e 22 49
e 22 56
e 22 66
e 22 74
e 22 80
e 22 83
e 22 87
e 22 102
e 22 105
e 22 107
e 22 124
e 22 127
e 22 128
e 22 135
e 22 136
e 22 153
e 22 159
e 22 178
e 22 193
e 22 223
e 22 225
e 22 228
e 22 229
e 22 233
e 22 236
e 22 240
e 23 28
e 23 41
e 23 48
e 23 50
e 23 56
e 23 57
e 23 62
e 23 71
e 23 73
e 23 83
e 23 101
e 23 112
e 23 120
e 23 124
e 23 137
e 23 171
e 23 182
e 23 197
e 23 204
e 23 205
e 23 222
e 23 223
e 23 248
e 24 43
e 24 44
e 24 46
e 24 65
e 24 75
e 24 85
e 24 110
e 24 113
e 24 118
e 24 126
e 24 137
e 24 168
e 24 169
e 24 180
e 24 182
e 24 184
e 24 194
e 24 196
e 24 200
e 24 216
e 24 219
e 24 220
e 24 235
e 24 246
e 24 249
e 25 29
e 25 31
e 25 49
e 25 57
e 25 73
e 25 74
e 25 85
e 25 90
e 25 96
e 25 141
e 25 150
e 25 159
e 25 171
e 25 192
e 25 198
e 25 221
e 25 234
e 25 249
e 26 34
e 26 48
e 26 68
e 26 83
e 26 86
e 26 105
e 26 121
e 26 147
e 26 163
e 26 167
e 26 181
e 26 195
e 26 198
e 26 225
e 26 234
e 26 247
e 26 248
e 27 29
e 27 37
e 27 41
e 27 47
e 27 53
e 27 54
e 27 66
e 27 80
e 27 87
e 27 92
e 27 96
e 27 104
e 27 130
e 27 137
e 27 154
e 27 156
e 27 161
e 27 162
e 27 175
e 27 179
e 27 198
e 27 205
e 27 209
e 27 218
e 27 225
e 27 229
e 27 230
e 27 246
e 27 247
e 28 33
e 28 34
e 28 45
e 28 47
e 28 49
e 28 53
e 28 64
e 28 73
e 28 74
e 28 78
e 28 99
e 28 100
e 28 104
e 28 109
e 28 122
e 28 148
e 28 161
e 28 169
e 28 170
e 28 174
e 28 189
e 28 194
e 28 205
e 28 210
e 28 227
e 28 231
e 28 235
e 29 30
e 29 49
e 29 69
e 29 70
e 29 76
e 29 104
e 29 129
e 29 138
e 29 146
e 29 153
e 29 159
e 29 177
e 29 180
e 29 195
e 29 202
e 29 233
e 29 234
e 29 237
e 30 31
e 30 32
e 30 45
e 30 72
e 30 75
e 30 85
e 30 91
e 30 96
e 30 98
e 30 109
e 30 134
e 30 144
e 30 146
e 30 149
e 30 151
e 30 160
e 30 163
e 30 167
e 30 180
e 30 217
e 30 219
e 30 227
e 30 229
e 30 239
e 30 247
e 31 32
e 31 33
e 31 35
e 31 40
e 31 42
e 31 51
e 31 73
e 31 136
e 31 148
e 31 156
e 31 161
e 31 188
e 31 198
e 31 208
e 31 209
e 31 211
e 31 213
e 31 215
e 31 219
e 31 220
e 31 228
e 31 235
e 32 41
e 32 58
e 32 66
e 32 73
e 32 80
e 32 86
e 32 89
e 32 97
e 32 99
e 32 110
e 32 111
e 32 128
e 32 133
e 32 137
e 32 147
e 32 156
e 32 161
e 32 173
e 32 229
e 32 230
e 32 233
e 32 249
e 33 48
e 33 52
e 33 72
e 33 111
e 33 123
e 33 126
e 33 129
e 33 133
e 33 135
e 33 148
e 33 153
e 33 158
e 33 161
e 33 173
e 33 192
e 33 204
e 33 209
e 33 212
e 33 214
e 33 225
e 33 227
e 33 235
e 33 242
e 33 249
e 34 37
e 34 42
e 34 49
e 34 87
e 34 127
e 34 130
e 34 133
e 34 138
e 34 154
e 34 158
e 34 171
e 34 186
e 34 187
e 34 189
e 34 213
e 34 222
e 35 44
e 35 49
e 35 58
e 35 77
e 35 101
e 35 116
e 35 123
e 35 144
e 35 150
e 35 151
e 35 164
e 35 171
e 35 194
e 35 210
e 35 212
e 35 248
e 36 37
e 36 38
e 36 60
e 36 67
e 36 80
e 36 88
e 36 92
e 36 96
e 36 113
e 36 117
e 36 125
e 36 127
e 36 134
e 36 147
e 36 149
e 36 153
e 36 155
e 36 157
e 36 174
e 36 178
e 36 179
e 36 184
e 36 191
e 36 192
e 36 204
e 36 217
e 36 222
e 36 226
e 37 49
e 37 54
e 37 65
e 37 79
e 37 83
e 37 84
e 37 95
e 37 96
e 37 107
e 37 120
e 37 123
e 37 146
e 37 147
e 37 151
e 37 154
e 37 160
e 37 175
e 37 180
e 37 193
e 37 194
e 37 198
e 37 223
e 37 225
e 37 245
e 38 46
e 38 51
e 38 55
e 38 58
e 38 59
e 38 67
e 38 81
e 38 90
e 38 95
e 38 100
e 38 101
e 38 115
e 38 126
e 38 150
e 38 173
e 38 180
e 38 203
e 38 214
e 38 217
e 38 222
e 38 239
e 39 41
e 39 48
e 39 58
e 39 67
e 39 84
e 39 96
e 39 123
e 39 141
e 39 143
e 39 146
e 39 147
e 39 155
e 39 183
e 39 198
e 39 230
e 39 233
e 39 243
e 40 50
e 40 69
e 40 72
e 40 88
e 40 103
e 40 120
e 40 134
e 40 135
e 40 140
e 40 148
e 40 156
e 40 162
e 40 164
e 40 173
e 40 176
e 40 186
e 40 194
e 40 202
e 40 203
e 40 236
e 40 241
e 40 248
e 41 59
e 41 65
e 41 81
e 41 87
e 41 90
e 41 108
e 41 109
e 41 110
e 41 116
e 41 142
e 41 145
e 41 149
e 41 153
e 41 164
e 41 182
e 41 206
e 41 227
e 41 237
e 42 56
e 42 61
e 42 80
e 42 97
e 42 108
e 42 121
e 42 134
e 42 135
e 42 158
e 42 173
e 42 197
e 42 212
e 42 218
e 42 220
e 42 223
e 42 228
e 42 238
e 42 242
e 43 48
e 43 68
e 43 74
e 43 85
e 43 88
e 43 90
e 43 97
e 43 102
e 43 109
e 43 138
e 43 153
e 43 174
e 43 181
e 43 182
e 43 206
e 43 210
e 43 217
e 43 218
e 43 235
e 44 51
e 44 71
e 44 85
e 44 106
e 44 123
e 44 125
e 44 145
e 44 147
e 44 157
e 44 158
e 44 162
e 44 175
e 44 179
e 44 189
e 44 199
e 44 215
e 44 217
e 44 225
e 44 235
e 45 52
e 45 57
e 45 61
e 45 76
e 45 87
e 45 98
e 45 107
e 45 111
e 45 126
e 45 135
e 45 142
e 45 149
e 45 152
e 45 153
e 45 154
e 45 157
e 45 191
e 45 204
e 45 205
e 45 207
e 45 231
e 45 240
e 45 249
e 46 73
e 46 74
e 46 80
e 46 82
e 46 91
e 46 104
e 46 105
e 46 112
e 46 117
e 46 124
e 46 132
e 46 149
e 46 155
e 46 162
e 46 179
e 46 186
e 46 192
e 46 193
e 46 201
e 46 208
e 46 229
e 46 239
e 46 244
e 47 48
e 47 53
e 47 77
e 47 83
e 47 86
e 47 89
e 47 92
e 47 96
e 47 102
e 47 112
e 47 115
e 47 120
e 47 127
e 47 130
e 47 132
e 47 141
e 47 148
e 47 156
e 47 157
e 47 172
e 47 180
e 47 181
e 47 189
e 47 211
e 47 215
e 47 216
e 47 240
e 47 241
e 48 58
e 48 60
e 48 83
e 48 104
e 48 112
e 48 122
e 48 174
e 48 177
e 48 187
e 48 189
e 48 195
e 48 196
e 48 205
e 48 209
e 48 216
e 48 217
e 48 240
e 49 59
e 49 63
e 49 68
e 49 69
e 49 73
e 49 80
e 49 93
e 49 132
e 49 149
e 49 150
e 49 162
e 49 167
e 49 172
e 49 174
e 49 183
e 49 190
e 49 192
e 49 202
e 49 203
e 49 223
e 49 233
e 49 237
e 50 105
e 50 113
e 50 114
e 50 134
e 50 142
e 50 151
e 50 152
e 50 153
e 50 162
e 50 163
e 50 168
e 50 172
e 50 173
e 50 175
e 50 185
e 50 219
e 50 222
e 50 223
e 50 224
e 50 228
e 50 229
e 50 230
e 50 241
e 50 249
e 51 68
e 51 72
e 51 78
e 51 79
e 51 83
e 51 85
e 51 88
e 51 94
e 51 112
e 51 126
e 51 132
e 51 152
e 51 166
e 51 173
e 51 181
e 51 183
e 51 199
e 51 200
e 51 207
e 51 214
e 51 220
e 51 224
e 51 234
e 51 236
e 51 237
e 52 54
e 52 74
e 52 78
e 52 83
e 52 95
e 52 99
e 52 109
e 52 113
e 52 116
e 52 117
e 52 125
e 52 126
e 52 139
e 52 145
e 52 151
e 52 154
e 52 163
e 52 176
e 52 180
e 52 186
e 52 209
e 52 210
e 52 226
e 52 228
e 52 235
e 52 242
e 53 56
e 53 73
e 53 96
e 53 98
e 53 108
e 53 111
e 53 115
e 53 116
e 53 123
e 53 124
e 53 126
e 53 138
e 53 165
e 53 179
e 53 189
e 53 190
e 53 193
e 53 200
e 53 211
e 53 214
e 53 218
e 53 219
e 54 55
e 54 62
e 54 82
e 54 87
e 54 91
e 54 121
e 54 142
e 54 158
e 54 168
e 54 189
e 54 193
e 54 199
e 54 213
e 54 230
e 54 238
e 54 249
e 55 65
e 55 73
e 55 86
e 55 96
e 55 105
e 55 124
e 55 126
e 55 130
e 55 154
e 55 174
e 55 175
e 55 191
e 55 211
e 55 218
e 55 225
e 55 227
e 55 228
e 55 229
e 55 240
e 55 241
e 55 245
e 55 248
e 56 68
e 56 95
e 56 99
e 56 114
e 56 117
e 56 118
e 56 123
e 56 132
e 56 162
e 56 191
e 56 201
e 56 210
e 56 214
e 56 219
e 56 224
e 56 235
e 56 237
e 56 246
e 57 65
e 57 79
e 57 89
e 57 98
e 57 118
e 57 121
e 57 122
e 57 135
e 57 144
e 57 158
e 57 191
e 57 194
e 57 196
e 57 199
e 57 216
e 57 220
e 58 69
e 58 76
e 58 78
e 58 92
e 58 95
e 58 111
e 58 130
e 58 143
e 58 146
e 58 157
e 58 181
e 58 185
e 58 207
e 58 241
e 59 62
e 59 74
e 59 97
e 59 98
e 59 143
e 59 150
e 59 158
e 59 161
e 59 163
e 59 178
e 59 197
e 59 198
e 59 199
e 59 214
e 59 222
e 59 226
e 59 230
e 59 236
e 60 64
e 60 66
e 60 70
e 60 71
e 60 73
e 60 79
e 60 87
e 60 118
e 60 126
e 60 135
e 60 147
e 60 156
e 60 157
e 60 166
e 60 171
e 60 174
e 60 192
e 60 204
e 60 207
e 60 210
e 60 229
e 60 234
e 60 240
e 60 244
e 61 62
e 61 68
e 61 75
e 61 91
e 61 103
e 61 109
e 61 110
e 61 116
e 61 127
e 61 141
e 61 157
e 61 176
e 61 183
e 61 191
e 61 208
e 61 247
e 61 249
e 62 68
e 62 70
e 62 73
e 62 91
e 62 99
e 62 134
e 62 142
e 62 145
e 62 155
e 62 174
e 62 194
e 62 195
e 62 209
e 62 210
e 62 225
e 62 226
e 63 73
e 63 75
e 63 88
e 63 96
e 63 118
e 63 125
e 63 127
e 63 131
e 63 141
e 63 152
e 63 154
e 63 162
e 63 172
e 63 173
e 63 182
e 63 183
e 63 188
e 63 196
e 63 200
e 63 205
e 63 210
e 63 231
e 64 68
e 64 72
e 64 88
e 64 96
e 64 101
e 64 104
e 64 122
e 64 133
e 64 136
e 64 157
e 64 158
e 64 160
e 64 179
e 64 183
e 64 185
e 64 199
e 64 202
e 64 209
e 64 218
e 65 66
e 65 85
e 65 92
e 65 95
e 65 111
e 65 123
e 65 125
e 65 147
e 65 155
e 65 164
e 65 171
e 65 178
e 65 190
e 65 192
e 65 194
e 65 201
e 65 204
e 65 220
e 65 241
e 65 242
e 66 74
e 66 81
e 66 84
e 66 88
e 66 93
e 66 101
e 66 106
e 66 124
e 66 148
e 66 150
e 66 165
e 66 169
e 66 181
e 66 191
e 66 194
e 66 206
e 66 208
e 66 210
e 66 212
e 66 237
e 66 238
e 66 245
e 67 75
e 67 94
e 67 122
e 67 131
e 67 137
e 67 142
e 67 152
e 67 163
e 67 204
e 67 205
e 67 209
e 67 217
e 67 219
e 67 220
e 67 238
e 68 97
e 68 100
e 68 107
e 68 140
e 68 154
e 68 159
e 68 176
e 68 179
e 68 222
e 68 229
e 69 73
e 69 83
e 69 92
e 69 104
e 69 113
e 69 129
e 69 145
e 69 146
e 69 149
e 69 174
e 69 178
e 69 187
e 69 192
e 69 225
e 69 237
e 69 239
e 70 75
e 70 81
e 70 107
e 70 109
e 70 126
e 70 130
e 70 153
e 70 165
e 70 166
e 70 182
e 70 204
e 70 207
e 70 212
e 70 215
e 70 225
e 70 229
e 70 231
e 70 243
e 70 245
e 71 76
e 71 77
e 71 79
e 71 91
e 71 95
e 71 98
e 71 128
e 71 129
e 71 130
e 71 134
e 71 141
e 71 146
e 71 161
e 71 181
e 71 192
e 71 195
e 71 201
e 71 216
e 71 226
e 71 227
e 71 235
e 71 238
e 71 246
e 72 79
e 72 85
e 72 95
e 72 102
e 72 103
e 72 104
e 72 113
e 72 137
e 72 150
e 72 156
e 72 167
e 72 173
e 72 175
e 72 181
e 72 216
e 72 217
e 72 226
e 73 76
e 73 93
e 73 102
e 73 112
e 73 120
e 73 136
e 73 166
e 73 174
e 73 183
e 73 202
e 73 211
e 73 234
e 73 241
e 74 79
e 74 85
e 74 88
e 74 94
e 74 95
e 74 101
e 74 116
e 74 126
e 74 136
e 74 157
e 74 167
e 74 173
e 74 179
e 74 188
e 74 196
e 74 201
e 74 223
e 74 230
e 74 240
e 75 79
e 75 87
e 75 98
e 75 104
e 75 118
e 75 119
e 75 140
e 75 166
e 75 178
e 75 180
e 75 199
e 75 206
e 75 213
e 75 224
e 75 234
e 75 236
e 76 86
e 76 94
e 76 110
e 76 128
e 76 147
e 76 148
e 76 155
e 76 161
e 76 167
e 76 173
e 76 222
e 76 224
e 76 227
e 76 231
e 76 234
e 76 247
e 76 248
e 77 83
e 77 85
e 77 92
e 77 95
e 77 107
e 77 114
e 77 115
e 77 155
e 77 169
e 77 173
e 77 179
e 77 183
e 77 192
e 77 200
e 77 201
e 77 220
e 77 224
e 77 230
e 77 238
e 77 239
e 78 94
e 78 100
e 78 103
e 78 107
e 78 108
e 78 131
e 78 136
e 78 148
e 78 149
e 78 150
e 78 153
e 78 162
e 78 172
e 78 189
e 78 216
e 78 223
e 78 224
e 78 225
e 78 227
e 78 232
e 78 234
e 78 237
e 79 89
e 79 101
e 79 115
e 79 157
e 79 162
e 79 168
e 79 180
e 79 197
e 79 204
e 80 82
e 80 87
e 80 88
e 80 89
e 80 111
e 80 112
e 80 113
e 80 146
e 80 152
e 80 168
e 80 170
e 80 177
e 80 187
e 80 194
e 80 197
e 80 198
e 80 200
e 80 204
e 80 208
e 80 223
e 80 233
e 80 234
e 80 244
e 81 87
e 81 100
e 81 113
e 81 124
e 81 138
e 81 156
e 81 161
e 81 197
e 81 212
e 81 222
e 81 227
e 81 237
e 82 90
e 82 94
e 82 99
e 82 116
e 82 121
e 82 129
e 82 133
e 82 141
e 82 146
e 82 160
e 82 178
e 82 191
e 82 194
e 82 200
e 82 208
e 82 209
e 82 218
e 82 225
e 82 226
e 82 227
e 82 228
e 83 90
e 83 92
e 83 103
e 83 117
e 83 140
e 83 151
e 83 158
e 83 161
e 83 163
e 83 165
e 83 192
e 83 197
e 83 214
e 83 245
e 83 247
e 84 102
e 84 108
e 84 111
e 84 117
e 84 125
e 84 138
e 84 157
e 84 164
e 84 174
e 84 179
e 84 181
e 84 197
e 84 199
e 84 220
e 84 229
e 84 237
e 84 238
e 85 140
e 85 144
e 85 145
e 85 153
e 85 166
e 85 171
e 85 173
e 85 177
e 85 178
e 85 200
e 85 207
e 85 217
e 85 226
e 85 229
e 85 233
e 86 88
e 86 90
e 86 91
e 86 92
e 86 94
e 86 99
e 86 100
e 86 102
e 86 108
e 86 113
e 86 124
e 86 128
e 86 132
e 86 178
e 86 192
e 86 197
e 86 207
e 86 227
e 86 231
e 86 236
e 86 238
e 86 246
e 87 133
e 87 137
e 87 143
e 87 163
e 87 169
e 87 170
e 87 172
e 87 180
e 87 182
e 87 193
e 87 204
e 87 213
e 87 238
e 87 241
e 88 118
e 88 119
e 88 135
e 88 137
e 88 150
e 88 168
e 88 171
e 88 190
e 88 192
e 88 197
e 88 204
e 88 224
e 88 230
e 88 234
e 89 96
e 89 100
e 89 105
e 89 109
e 89 112
e 89 123
e 89 125
e 89 130
e 89 138
e 89 155
e 89 158
e 89 175
e 89 177
e 89 187
e 89 195
e 89 199
e 89 203
e 89 213
e 89 230
e 89 240
e 89 246
e 90 111
e 90 117
e 90 123
e 90 161
e 90 172
e 90 189
e 90 193
e 90 211
e 90 212
e 90 231
e 90 238
e 90 240
e 91 99
e 91 110
e 91 122
e 91 135
e 91 146
e 91 157
e 91 173
e 91 200
e 91 205
e 91 207
e 91 210
e 91 232
e 92 94
e 92 96
e 92 100
e 92 106
e 92 120
e 92 130
e 92 131
e 92 132
e 92 139
e 92 143
e 92 144
e 92 146
e 92 150
e 92 157
e 92 158
e 92 179
e 92 183
e 92 195
e 92 198
e 92 200
e 92 206
e 92 217
e 92 230
e 92 232
e 92 236
e 92 237
e 92 239
e 92 243
e 92 248
e 93 117
e 93 119
e 93 133
e 93 138
e 93 146
e 93 159
e 93 163
e 93 178
e 93 179
e 93 193
e 93 195
e 93 209
e 93 241
e 94 96
e 94 116
e 94 128
e 94 134
e 94 138
e 94 140
e 94 176
e 94 185
e 94 198
e 94 232
e 94 242
e 94 246
e 94 247
e 95 105
e 95 106
e 95 122
e 95 141
e 95 147
e 95 148
e 95 150
e 95 183
e 95 184
e 95 198
e 95 221
e 95 223
e 95 232
e 95 238
e 95 239
e 95 242
e 96 98
e 96 101
e 96 115
e 96 124
e 96 139
e 96 152
e 96 165
e 96 174
e 96 175
e 96 180
e 96 193
e 96 198
e 96 201
e 96 206
e 96 210
e 96 233
e 96 238
e 97 125
e 97 127
e 97 152
e 97 157
e 97 164
e 97 179
e 97 181
e 97 195
e 97 202
e 97 211
e 97 212
e 97 213
e 97 225
e 97 226
e 97 243
e 98 103
e 98 109
e 98 113
e 98 117
e 98 121
e 98 122
e 98 125
e 98 129
e 98 142
e 98 144
e 98 145
e 98 146
e 98 155
e 98 161
e 98 203
e 98 208
e 98 210
e 98 212
e 98 220
e 98 224
e 98 235
e 98 247
e 99 101
e 99 103
e 99 112
e 99 119
e 99 137
e 99 171
e 99 176
e 99 177
e 99 188
e 99 201
e 99 202
e 99 232
e 99 243
e 99 249
e 100 105
e 100 108
e 100 111
e 100 114
e 100 118
e 100 126
e 100 132
e 100 153
e 100 155
e 100 164
e 100 165
e 100 175
e 100 192
e 100 205
e 100 210
e 100 217
e 100 221
e 100 223
e 100 232
e 100 233
e 100 241
e 100 242
e 101 104
e 101 121
e 101 122
e 101 125
e 101 140
e 101 160
e 101 163
e 101 167
e 101 182
e 101 187
e 101 209
e 101 226
e 101 229
e 101 236
e 101 239
e 102 104
e 102 106
e 102 119
e 102 123
e 102 134
e 102 136
e 102 146
e 102 174
e 102 177
e 102 178
e 102 183
e 102 198
e 102 232
e 102 247
e 102 249
e 103 104
e 103 106
e 103 125
e 103 138
e 103 153
e 103 160
e 103 186
e 103 193
e 103 196
e 103 205
e 103 208
e 104 115
e 104 123
e 104 127
e 104 134
e 104 160
e 104 175
e 104 180
e 104 182
e 104 190
e 104 193
e 104 196
e 104 205
e 104 218
e 104 227
e 104 229
e 104 239
e 104 245
e 105 124
e 105 126
e 105 130
e 105 139
e 105 175
e 105 181
e 105 199
e 105 200
e 105 208
e 105 223
e 105 224
e 105 226
e 105 235
e 106 107
e 106 114
e 106 122
e 106 127
e 106 147
e 106 159
e 106 175
e 106 208
e 106 236
e 106 237
e 106 241
e 106 242
e 107 114
e 107 121
e 107 123
e 107 141
e 107 144
e 107 148
e 107 160
e 107 165
e 107 172
e 107 177
e 107 178
e 107 193
e 107 195
e 107 203
e 107 231
e 107 241
e 108 113
e 108 121
e 108 123
e 108 134
e 108 173
e 108 177
e 108 205
e 108 212
e 108 231
e 109 111
e 109 120
e 109 133
e 109 135
e 109 151
e 109 166
e 109 168
e 109 169
e 109 184
e 109 190
e 109 201
e 109 203
e 109 222
e 109 230
e 109 239
e 110 122
e 110 133
e 110 142
e 110 153
e 110 154
e 110 156
e 110 166
e 110 173
e 110 183
e 110 199
e 110 215
e 110 229
e 111 114
e 111 116
e 111 122
e 111 134
e 111 136
e 111 143
e 111 144
e 111 146
e 111 158
e 111 162
e 111 175
e 111 180
e 111 194
e 111 200
e 111 237
e 111 238
e 112 134
e 112 137
e 112 143
e 112 149
e 112 151
e 112 157
e 112 169
e 112 184
e 112 185
e 112 191
e 112 197
e 112 227
e 112 236
e 112 241
e 113 148
e 113 208
e 113 238
e 113 247
e 114 122
e 114 125
e 114 140
e 114 142
e 114 154
e 114 187
e 114 197
e 114 201
e 114 202
e 114 211
e 114 220
e 114 240
e 115 137
e 115 150
e 115 156
e 115 167
e 115 180
e 115 187
e 115 193
e 115 194
e 115 201
e 115 216
e 115 226
e 115 234
e 115 237
e 116 124
e 116 125
e 116 130
e 116 135
e 116 137
e 116 140
e 116 143
e 116 156
e 116 160
e 116 168
e 116 173
e 116 174
e 116 225
e 116 235
e 117 119
e 117 159
e 117 182
e 117 189
e 117 204
e 117 211
e 117 212
e 117 219
e 117 236
e 117 248
e 118 133
e 118 146
e 118 155
e 118 174
e 118 181
e 118 204
e 118 206
e 118 214
e 118 216
e 118 218
e 118 229
e 119 120
e 119 121
e 119 135
e 119 136
e 119 151
e 119 153
e 119 155
e 119 156
e 119 164
e 119 165
e 119 176
e 119 194
e 119 204
e 119 205
e 119 221
e 119 230
e 119 231
e 119 239
e 119 243
e 120 121
e 120 126
e 120 139
e 120 144
e 120 157
e 120 165
e 120 166
e 120 169
e 120 179
e 120 183
e 120 187
e 120 200
e 120 209
e 120 224
e 120 227
e 120 229
e 121 163
e 121 173
e 121 178
e 121 183
e 121 185
e 121 187
e 121 193
e 121 197
e 121 210
e 121 216
e 121 232
e 121 244
e 122 125
e 122 131
e 122 138
e 122 149
e 122 153
e 122 163
e 122 181
e 122 190
e 122 201
e 122 210
e 122 215
e 122 234
e 123 124
e 123 126
e 123 128
e 123 131
e 123 143
e 123 155
e 123 160
e 123 182
e 123 187
e 123 188
e 123 193
e 123 201
e 123 209
e 123 215
e 123 222
e 123 236
e 123 238
e 123 243
e 124 125
e 124 129
e 124 130
e 124 147
e 124 156
e 124 159
e 124 166
e 124 170
e 124 171
e 124 175
e 124 187
e 124 199
e 124 206
e 124 217
e 124 220
e 124 231
e 124 234
e 124 236
e 125 128
e 125 136
e 125 148
e 125 153
e 125 173
e 125 180
e 125 182
e 125 195
e 125 222
e 125 227
e 125 231
e 125 238
e 125 241
e 126 138
e 126 141
e 126 144
e 126 152
e 126 164
e 126 174
e 126 189
e 126 196
e 126 198
e 126 211
e 126 218
e 126 219
e 126 239
e 126 242
e 126 245
e 127 154
e 127 155
e 127 160
e 127 162
e 127 175
e 127 187
e 127 216
e 127 218
e 128 133
e 128 141
e 128 152
e 128 157
e 128 166
e 128 194
e 128 198
e 128 215
e 128 221
e 128 231
e 128 241
e 128 247
e 129 135
e 129 140
e 129 152
e 129 160
e 129 163
e 129 181
e 129 182
e 129 203
e 129 208
e 129 215
e 129 228
e 129 230
e 129 242
e 129 248
e 130 141
e 130 146
e 130 150
e 130 151
e 130 173
e 130 199
e 130 227
e 130 240
e 130 246
e 131 136
e 131 137
e 131 153
e 131 169
e 131 171
e 131 174
e 131 185
e 131 195
e 131 217
e 131 226
e 131 234
e 131 235
e 131 242
e 131 243
e 131 245
e 132 133
e 132 136
e 132 137
e 132 142
e 132 146
e 132 155
e 132 157
e 132 158
e 132 188
e 132 195
e 132 204
e 132 206
e 132 208
e 132 211
e 132 239
e 132 247
e 133 142
e 133 153
e 133 164
e 133 175
e 133 180
e 133 185
e 133 188
e 133 190
e 133 197
e 133 212
e 133 223
e 133 239
e 133 242
e 133 246
e 134 137
e 134 139
e 134 159
e 134 175
e 134 178
e 134 188
e 134 191
e 134 196
e 134 204
e 134 208
e 134 211
e 134 222
e 134 223
e 134 224
e 134 227
e 134 240
e 135 137
e 135 143
e 135 149
e 135 150
e 135 171
e 135 176
e 135 198
e 135 201
e 135 203
e 135 219
e 135 235
e 135 243
e 135 244
e 135 249
e 136 139
e 136 148
e 136 153
e 136 154
e 136 157
e 136 181
e 136 184
e 136 189
e 136 210
e 136 229
e 136 232
e 136 247
e 137 161
e 137 171
e 137 172
e 137 184
e 137 192
e 137 211
e 137 229
e 137 235
e 137 240
e 137 241
e 138 139
e 138 140
e 138 167
e 138 178
e 138 192
e 138 195
e 138 196
e 138 209
e 138 220
e 138 222
e 138 223
e 138 224
e 138 236
e 138 246
e 138 247
e 139 145
e 139 152
e 139 157
e 139 172
e 139 184
e 139 208
e 139 214
e 139 226
e 139 227
e 139 229
e 139 233
e 139 246
e 140 148
e 140 187
e 140 196
e 140 206
e 140 210
e 140 226
e 140 232
e 141 142
e 141 145
e 141 154
e 141 166
e 141 167
e 141 170
e 141 178
e 141 187
e 141 188
e 141 191
e 141 200
e 141 201
e 141 206
e 141 218
e 141 223
e 141 238
e 141 239
e 141 244
e 141 249
e 142 148
e 142 151
e 142 164
e 142 165
e 142 175
e 142 184
e 142 192
e 142 207
e 142 221
e 142 228
e 142 241
e 142 245
e 143 146
e 143 157
e 143 158
e 143 171
e 143 178
e 143 199
e 143 217
e 143 218
e 143 246
e 144 158
e 144 162
e 144 178
e 144 206
e 144 232
e 144 242
e 144 245
e 145 150
e 145 152
e 145 181
e 145 204
e 145 218
e 145 226
e 145 230
e 145 242
e 145 247
e 145 248
e 146 163
e 146 180
e 146 183
e 146 199
e 146 207
e 146 232
e 146 235
e 146 240
e 146 243
e 146 248
e 147 153
e 147 164
e 147 172
e 147 183
e 147 204
e 147 247
e 147 248
e 148 154
e 148 157
e 148 168
e 148 185
e 148 189
e 148 199
e 148 205
e 148 228
e 148 230
e 148 231
e 148 232
e 149 158
e 149 163
e 149 173
e 149 190
e 149 206
e 149 215
e 149 232
e 149 237
e 149 239
e 149 240
e 150 159
e 150 228
e 151 154
e 151 165
e 151 166
e 151 171
e 151 181
e 151 188
e 151 195
e 151 202
e 151 209
e 151 213
e 151 222
e 151 223
e 151 226
e 151 235
e 151 239
e 151 241
e 152 159
e 152 163
e 152 189
e 152 198
e 152 209
e 152 225
e 152 232
e 152 233
e 152 247
e 153 162
e 153 184
e 153 199
e 153 207
e 153 211
e 153 217
e 153 235
e 153 236
e 153 244
e 154 166
e 154 168
e 154 171
e 154 199
e 154 221
e 154 228
e 154 231
e 154 233
e 154 236
e 154 249
e 155 162
e 155 167
e 155 190
e 155 203
e 155 214
e 155 229
e 155 230
e 156 179
e 156 197
e 156 200
e 156 201
e 156 202
e 156 213
e 156 214
e 156 218
e 156 222
e 156 225
e 156 242
e 157 159
e 157 206
e 157 207
e 157 209
e 157 214
e 157 220
e 157 238
e 158 160
e 158 161
e 158 181
e 158 199
e 158 200
e 158 202
e 158 206
e 158 210
e 158 216
e 158 220
e 159 173
e 159 207
e 159 220
e 159 227
e 159 230
e 159 232
e 159 234
e 159 235
e 159 242
e 160 161
e 160 165
e 160 171
e 160 175
e 160 190
e 160 217
e 160 221
e 160 247
e 160 249
e 161 163
e 161 172
e 161 214
e 161 220
e 161 226
e 161 229
e 161 234
e 161 235
e 161 245
e 161 249
e 162 165
e 162 167
e 162 169
e 162 180
e 162 193
e 162 196
e 162 208
e 162 212
e 162 222
e 162 228
e 162 238
e 162 249
e 163 167
e 163 178
e 163 184
e 163 191
e 163 201
e 163 206
e 163 207
e 163 217
e 163 235
e 163 239
e 163 241
e 163 243
e 164 166
e 164 173
e 164 200
e 164 203
e 164 207
e 165 166
e 165 176
e 165 177
e 165 182
e 165 192
e 165 214
e 165 235
e 165 242
e 166 168
e 166 178
e 166 183
e 166 191
e 166 206
e 166 209
e 166 210
e 166 216
e 166 223
e 166 225
e 166 240
e 167 169
e 167 189
e 167 210
e 167 226
e 167 233
e 167 245
e 168 174
e 168 181
e 168 184
e 168 187
e 168 188
e 168 201
e 168 203
e 168 204
e 168 212
e 168 224
e 168 230
e 168 241
e 168 244
e 169 172
e 169 173
e 169 182
e 169 192
e 169 197
e 169 214
e 169 224
e 169 229
e 169 231
e 169 236
e 169 240
e 170 173
e 170 176
e 170 184
e 170 192
e 170 197
e 170 206
e 170 207
e 170 231
e 170 234
e 170 244
e 170 247
e 171 178
e 171 185
e 171 200
e 171 205
e 171 211
e 171 222
e 171 240
e 171 248
e 172 180
e 172 183
e 172 198
e 172 202
e 172 227
e 172 239
e 172 241
e 173 225
e 173 226
e 173 235
e 173 241
e 173 247
e 174 187
e 174 207
e 174 212
e 174 213
e 174 232
e 174 246
e 175 199
e 175 201
e 175 208
e 175 248
e 176 198
e 176 207
e 176 219
e 176 227
e 177 178
e 177 182
e 177 219
e 177 221
e 177 228
e 177 229
e 177 238
e 177 240
e 178 195
e 179 192
e 179 208
e 179 213
e 179 214
e 179 217
e 179 218
e 179 224
e 179 234
e 179 240
e 180 186
e 180 206
e 180 213
e 180 222
e 180 224
e 180 228
e 180 247
e 181 217
e 181 224
e 181 230
e 181 243
e 182 194
e 182 196
e 182 205
e 182 209
e 182 210
e 182 214
e 182 225
e 182 230
e 182 242
e 182 247
e 182 249
e 183 198
e 183 207
e 183 220
e 183 228
e 184 186
e 184 198
e 184 205
e 184 215
e 184 225
e 184 231
e 184 239
e 184 244
e 185 186
e 185 189
e 185 191
e 185 192
e 185 197
e 185 201
e 185 215
e 185 220
e 185 247
e 185 249
e 186 190
e 186 192
e 186 216
e 186 225
e 186 226
e 187 195
e 187 223
e 187 230
e 187 238
e 187 244
e 187 248
e 188 192
e 188 201
e 188 233
e 188 238
e 188 239
e 188 243
e 189 196
e 189 200
e 189 202
e 189 203
e 189 208
e 189 228
e 189 235
e 189 238
e 189 243
e 190 198
e 190 216
e 190 219
e 190 222
e 190 224
e 190 241
e 191 208
e 191 210
e 191 213
e 191 228
e 191 233
e 191 240
e 191 245
e 192 203
e 192 217
e 192 228
e 192 230
e 192 232
e 192 237
e 192 239
e 192 245
e 192 247
e 192 248
e 193 206
e 193 214
e 193 224
e 193 247
e 194 197
e 194 246
e 195 201
e 195 232
e 195 241
e 195 245
e 195 246
e 196 203
e 196 207
e 196 222
e 197 209
e 197 227
e 197 233
e 198 216
e 198 227
e 198 228
e 199 200
e 199 209
e 199 235
e 200 203
e 200 208
e 200 229
e 200 235
e 201 216
e 201 220
e 201 243
e 202 211
e 202 212
e 202 223
e 202 227
e 203 233
e 203 234
e 203 236
e 203 242
e 203 249
e 204 233
e 204 241
e 204 244
e 204 249
e 205 210
e 205 219
e 205 220
e 205 225
e 205 227
e 205 235
e 205 238
e 206 216
e 206 220
e 206 223
e 206 226
e 206 228
e 206 232
e 206 241
e 206 244
e 206 245
e 206 249
e 207 222
e 207 223
e 207 234
e 208 212
e 208 216
e 208 220
e 208 221
e 208 223
e 208 232
e 208 234
e 208 241
e 208 242
e 209 211
e 209 224
e 209 226
e 209 230
e 209 247
e 210 229
e 210 233
e 210 239
e 212 216
e 212 227
e 212 230
e 213 232
e 213 233
e 213 234
e 213 239
e 213 243
e 213 246
e 213 249
e 214 217
e 214 222
e 214 227
e 215 218
e 215 224
e 215 226
e 215 230
e 215 240
e 215 242
e 215 246
e 215 249
e 216 217
e 216 228
e 216 236
e 216 238
e 217 232
e 217 236
e 217 245
e 217 247
e 218 225
e 218 230
e 218 243
e 219 220
e 219 221
e 219 222
e 219 227
e 219 236
e 220 228
e 220 229
e 220 243
e 220 249
e 221 240
e 221 242
e 221 247
e 222 230
e 222 244
e 222 246
e 222 248
e 223 241
e 223 242
e 224 240
e 225 227
e 225 235
e 225 237
e 225 249
e 226 234
e 227 245
e 227 248
e 228 232
e 228 239
e 228 242
e 228 244
e 230 235
e 230 236
e 230 237
e 230 243
e 233 247
e 234 241
e 235 241
e 236 238
e 236 241
e 236 242
e 236 245
e 237 247
e 237 248
e 238 246
e 239 243
e 239 247
e 241 243
e 242 248
e 244 248
